
  18    0


   0   9 2 3 4 5 6 14 15 16 17 
   5   4 13 12 11 7 
   1   4 10 9 8 7 
   6   2 8 7 
   9   1 7 
   6   1 7 
   3   1 18
   3   1 18
   1   1 18
   5   1 18
   3   1 18
   9   1 18
   3   1 18
   2   1 18
   4   1 18
   3   1 18
   8   1 18
   0   0 
